SAT
75 1 28 78 163 152 39 -12 -150 52 -124 125 -5 97 -143 98 82 -166 161 -128 102 164 -108 9 51 83 -132 -13 -154 170 -127 -46 175 -100 -129 -65 29 70 99 109 95 24 -168 -94 -111 87 114 91 147 -72 -122 -172 44 121 -55 141 -21 -2 -15 -105 -81 42 -174 -165 47 133 -136 115 -153 119 -113 -6 -151 162 -56 74 155 -148 89 171 101 -71 -142 79 169 -173 -80 -22 -19 -32 -138 -67 25 146 -137 -17 -110 -64 -36 103 -34 57 85 159 -3 -7 -50 27 69 90 63 96 -116 123 30 106 -26 -8 -33 -66 -107 -23 41 -53 145 18 -62 4 -38 104 14 -126 118 160 -68 20 54 -131 -37 -149 92 -60 -77 -140 -11 135 144 43 167 -73 10 134 130 -86 16 31 84 -93 157 -58 -35 -112 -40 156 -158 45 -120 139 -48 61 117 -88 76 -49 59 0
